JulietBench/Juliet_Based_Patch_Bench/linux/CWE-189-Numeric-Errors/CVE_2011_2497_7ac28817536797fd40e9646452183606f9e17f71/Resultl2cap_config_req_Snippet_patch2EQ.smt2
; benchmark generated from python API
(set-info :status unknown)
(declare-fun R () (_ BitVec 32))
(declare-fun rdi () (_ BitVec 64))
(declare-fun rsi () (_ BitVec 64))
(assert
 (let (($x72 (= (_ bv1 32) R)))
 (let ((?x10 ((_ extract 15 0) rdi)))
 (let ((?x17 (concat (_ bv0 16) ?x10)))
 (let ((?x24 (bvadd (_ bv4294967292 32) ?x17)))
 (let (($x13 (= R ?x24)))
 (let ((?x15 ((_ extract 7 0) rsi)))
 (let ((?x26 (concat (_ bv0 24) ?x15)))
 (let ((?x27 (bvadd ?x24 ?x26)))
 (let (($x32 (bvsge (_ bv128 32) ?x27)))
 (let (($x7 (and $x32 $x13)))
 (let (($x20 (= (_ bv0 32) R)))
 (let (($x55 (bvslt (_ bv128 32) ?x27)))
 (let (($x19 (and $x55 $x20)))
 (let (($x70 (or $x19 $x7)))
 (and $x70 $x72))))))))))))))))
(check-sat)
